eigenvectors thermal prop conv phon mole rigid noautobond include_imaginary nowrap fix_molecule

cell
   21.84 21.84000 21.84000 90.000000 90.000000 90.000000

temperature 300

fractional
Na	core	0	0.125	0.125
Na	core	0.125	0.125	0
Na	core	0.125	0	0.125
Na	core	0	0	0
Na	core	0.25	0.125	0.125
Na	core	0.375	0.125	0
Na	core	0.375	0	0.125
Na	core	0.25	0	0
Na	core	0.5	0.125	0.125
Na	core	0.625	0.125	0
Na	core	0.625	0	0.125
Na	core	0.5	0	0
Na	core	0.75	0.125	0.125
Na	core	0.875	0.125	0
Na	core	0.875	0	0.125
Na	core	0.75	0	0
Na	core	0	0.375	0.125
Na	core	0.125	0.375	0
Na	core	0.125	0.25	0.125
Na	core	0	0.25	0
Na	core	0.25	0.375	0.125
Na	core	0.375	0.375	0
Na	core	0.375	0.25	0.125
Na	core	0.25	0.25	0
Na	core	0.5	0.375	0.125
Na	core	0.625	0.375	0
Na	core	0.625	0.25	0.125
Na	core	0.5	0.25	0
Na	core	0.75	0.375	0.125
Na	core	0.875	0.375	0
Na	core	0.875	0.25	0.125
Na	core	0.75	0.25	0
Na	core	0	0.625	0.125
Na	core	0.125	0.625	0
Na	core	0.125	0.5	0.125
Na	core	0	0.5	0
Na	core	0.25	0.625	0.125
Na	core	0.375	0.625	0
Na	core	0.375	0.5	0.125
Na	core	0.25	0.5	0
Na	core	0.5	0.625	0.125
Na	core	0.625	0.625	0
Na	core	0.625	0.5	0.125
Na	core	0.5	0.5	0
Na	core	0.75	0.625	0.125
Na	core	0.875	0.625	0
Na	core	0.875	0.5	0.125
Na	core	0.75	0.5	0
Na	core	0	0.875	0.125
Na	core	0.125	0.875	0
Na	core	0.125	0.75	0.125
Na	core	0	0.75	0
Na	core	0.25	0.875	0.125
Na	core	0.375	0.875	0
Na	core	0.375	0.75	0.125
Na	core	0.25	0.75	0
Na	core	0.5	0.875	0.125
Na	core	0.625	0.875	0
Na	core	0.625	0.75	0.125
Na	core	0.5	0.75	0
Na	core	0.75	0.875	0.125
Na	core	0.875	0.875	0
Na	core	0.875	0.75	0.125
Na	core	0.75	0.75	0
Na	core	0	0.125	0.375
Na	core	0.125	0.125	0.25
Na	core	0.125	0	0.375
Na	core	0	0	0.25
Na	core	0.25	0.125	0.375
Na	core	0.375	0.125	0.25
Na	core	0.375	0	0.375
Na	core	0.25	0	0.25
Na	core	0.5	0.125	0.375
Na	core	0.625	0.125	0.25
Na	core	0.625	0	0.375
Na	core	0.5	0	0.25
Na	core	0.75	0.125	0.375
Na	core	0.875	0.125	0.25
Na	core	0.875	0	0.375
Na	core	0.75	0	0.25
Na	core	0	0.375	0.375
Na	core	0.125	0.375	0.25
Na	core	0.125	0.25	0.375
Na	core	0	0.25	0.25
Na	core	0.25	0.375	0.375
Na	core	0.375	0.375	0.25
Na	core	0.375	0.25	0.375
Na	core	0.25	0.25	0.25
Na	core	0.5	0.375	0.375
Na	core	0.625	0.375	0.25
Na	core	0.625	0.25	0.375
Na	core	0.5	0.25	0.25
Na	core	0.75	0.375	0.375
Na	core	0.875	0.375	0.25
Na	core	0.875	0.25	0.375
Na	core	0.75	0.25	0.25
Na	core	0	0.625	0.375
Na	core	0.125	0.625	0.25
Na	core	0.125	0.5	0.375
Na	core	0	0.5	0.25
Na	core	0.25	0.625	0.375
Na	core	0.375	0.625	0.25
Na	core	0.375	0.5	0.375
Na	core	0.25	0.5	0.25
Na	core	0.5	0.625	0.375
Na	core	0.625	0.625	0.25
Na	core	0.625	0.5	0.375
Na	core	0.5	0.5	0.25
Na	core	0.75	0.625	0.375
Na	core	0.875	0.625	0.25
Na	core	0.875	0.5	0.375
Na	core	0.75	0.5	0.25
Na	core	0	0.875	0.375
Na	core	0.125	0.875	0.25
Na	core	0.125	0.75	0.375
Na	core	0	0.75	0.25
Na	core	0.25	0.875	0.375
Na	core	0.375	0.875	0.25
Na	core	0.375	0.75	0.375
Na	core	0.25	0.75	0.25
Na	core	0.5	0.875	0.375
Na	core	0.625	0.875	0.25
Na	core	0.625	0.75	0.375
Na	core	0.5	0.75	0.25
Na	core	0.75	0.875	0.375
Na	core	0.875	0.875	0.25
Na	core	0.875	0.75	0.375
Na	core	0.75	0.75	0.25
Na	core	0	0.125	0.625
Na	core	0.125	0.125	0.5
Na	core	0.125	0	0.625
Na	core	0	0	0.5
Na	core	0.25	0.125	0.625
Na	core	0.375	0.125	0.5
Na	core	0.375	0	0.625
Na	core	0.25	0	0.5
Na	core	0.5	0.125	0.625
Na	core	0.625	0.125	0.5
Na	core	0.625	0	0.625
Na	core	0.5	0	0.5
Na	core	0.75	0.125	0.625
Na	core	0.875	0.125	0.5
Na	core	0.875	0	0.625
Na	core	0.75	0	0.5
Na	core	0	0.375	0.625
Na	core	0.125	0.375	0.5
Na	core	0.125	0.25	0.625
Na	core	0	0.25	0.5
Na	core	0.25	0.375	0.625
Na	core	0.375	0.375	0.5
Na	core	0.375	0.25	0.625
Na	core	0.25	0.25	0.5
Na	core	0.5	0.375	0.625
Na	core	0.625	0.375	0.5
Na	core	0.625	0.25	0.625
Na	core	0.5	0.25	0.5
Na	core	0.75	0.375	0.625
Na	core	0.875	0.375	0.5
Na	core	0.875	0.25	0.625
Na	core	0.75	0.25	0.5
Na	core	0	0.625	0.625
Na	core	0.125	0.625	0.5
Na	core	0.125	0.5	0.625
Na	core	0	0.5	0.5
Na	core	0.25	0.625	0.625
Na	core	0.375	0.625	0.5
Na	core	0.375	0.5	0.625
Na	core	0.25	0.5	0.5
Na	core	0.5	0.625	0.625
Na	core	0.625	0.625	0.5
Na	core	0.625	0.5	0.625
Na	core	0.5	0.5	0.5
Na	core	0.75	0.625	0.625
Na	core	0.875	0.625	0.5
Na	core	0.875	0.5	0.625
Na	core	0.75	0.5	0.5
Na	core	0	0.875	0.625
Na	core	0.125	0.875	0.5
Na	core	0.125	0.75	0.625
Na	core	0	0.75	0.5
Na	core	0.25	0.875	0.625
Na	core	0.375	0.875	0.5
Na	core	0.375	0.75	0.625
Na	core	0.25	0.75	0.5
Na	core	0.5	0.875	0.625
Na	core	0.625	0.875	0.5
Na	core	0.625	0.75	0.625
Na	core	0.5	0.75	0.5
Na	core	0.75	0.875	0.625
Na	core	0.875	0.875	0.5
Na	core	0.875	0.75	0.625
Na	core	0.75	0.75	0.5
Na	core	0	0.125	0.875
Na	core	0.125	0.125	0.75
Na	core	0.125	0	0.875
Na	core	0	0	0.75
Na	core	0.25	0.125	0.875
Na	core	0.375	0.125	0.75
Na	core	0.375	0	0.875
Na	core	0.25	0	0.75
Na	core	0.5	0.125	0.875
Na	core	0.625	0.125	0.75
Na	core	0.625	0	0.875
Na	core	0.5	0	0.75
Na	core	0.75	0.125	0.875
Na	core	0.875	0.125	0.75
Na	core	0.875	0	0.875
Na	core	0.75	0	0.75
Na	core	0	0.375	0.875
Na	core	0.125	0.375	0.75
Na	core	0.125	0.25	0.875
Na	core	0	0.25	0.75
Na	core	0.25	0.375	0.875
Na	core	0.375	0.375	0.75
Na	core	0.375	0.25	0.875
Na	core	0.25	0.25	0.75
Na	core	0.5	0.375	0.875
Na	core	0.625	0.375	0.75
Na	core	0.625	0.25	0.875
Na	core	0.5	0.25	0.75
Na	core	0.75	0.375	0.875
Na	core	0.875	0.375	0.75
Na	core	0.875	0.25	0.875
Na	core	0.75	0.25	0.75
Na	core	0	0.625	0.875
Na	core	0.125	0.625	0.75
Na	core	0.125	0.5	0.875
Na	core	0	0.5	0.75
Na	core	0.25	0.625	0.875
Na	core	0.375	0.625	0.75
Na	core	0.375	0.5	0.875
Na	core	0.25	0.5	0.75
Na	core	0.5	0.625	0.875
Na	core	0.625	0.625	0.75
Na	core	0.625	0.5	0.875
Na	core	0.5	0.5	0.75
Na	core	0.75	0.625	0.875
Na	core	0.875	0.625	0.75
Na	core	0.875	0.5	0.875
Na	core	0.75	0.5	0.75
Na	core	0	0.875	0.875
Na	core	0.125	0.875	0.75
Na	core	0.125	0.75	0.875
Na	core	0	0.75	0.75
Na	core	0.25	0.875	0.875
Na	core	0.375	0.875	0.75
Na	core	0.375	0.75	0.875
Na	core	0.25	0.75	0.75
Na	core	0.5	0.875	0.875
Na	core	0.625	0.875	0.75
Na	core	0.625	0.75	0.875
Na	core	0.5	0.75	0.75
Na	core	0.75	0.875	0.875
Na	core	0.875	0.875	0.75
Na	core	0.875	0.75	0.875
Na	core	0.75	0.75	0.75
O	core	0.142307692	-0.017307692	0.267307692
He	core	0.125	0	0.25
O	core	0.107692308	0.017307692	0.232692308
O	core	0.142307692	0.142307692	0.142307692
He	core	0.125	0.125	0.125
O	core	0.107692308	0.107692308	0.107692308
O	core	-0.017307692	0.267307692	0.142307692
He	core	0	0.25	0.125
O	core	0.017307692	0.232692308	0.107692308
O	core	-0.017307692	0.107692308	0.267307692
He	core	0	0.125	0.25
O	core	0.017307692	0.142307692	0.232692308
O	core	0.392307692	-0.017307692	0.267307692
He	core	0.375	0	0.25
O	core	0.357692308	0.017307692	0.232692308
O	core	0.392307692	0.142307692	0.142307692
He	core	0.375	0.125	0.125
O	core	0.357692308	0.107692308	0.107692308
O	core	0.232692308	0.267307692	0.142307692
He	core	0.25	0.25	0.125
O	core	0.267307692	0.232692308	0.107692308
O	core	0.232692308	0.107692308	0.267307692
He	core	0.25	0.125	0.25
O	core	0.267307692	0.142307692	0.232692308
O	core	0.642307692	-0.017307692	0.267307692
He	core	0.625	0	0.25
O	core	0.607692308	0.017307692	0.232692308
O	core	0.642307692	0.142307692	0.142307692
He	core	0.625	0.125	0.125
O	core	0.607692308	0.107692308	0.107692308
O	core	0.482692308	0.267307692	0.142307692
He	core	0.5	0.25	0.125
O	core	0.517307692	0.232692308	0.107692308
O	core	0.482692308	0.107692308	0.267307692
He	core	0.5	0.125	0.25
O	core	0.517307692	0.142307692	0.232692308
O	core	0.892307692	-0.017307692	0.267307692
He	core	0.875	0	0.25
O	core	0.857692308	0.017307692	0.232692308
O	core	0.892307692	0.142307692	0.142307692
He	core	0.875	0.125	0.125
O	core	0.857692308	0.107692308	0.107692308
O	core	0.732692308	0.267307692	0.142307692
He	core	0.75	0.25	0.125
O	core	0.767307692	0.232692308	0.107692308
O	core	0.732692308	0.107692308	0.267307692
He	core	0.75	0.125	0.25
O	core	0.767307692	0.142307692	0.232692308
O	core	0.142307692	0.232692308	0.267307692
He	core	0.125	0.25	0.25
O	core	0.107692308	0.267307692	0.232692308
O	core	0.142307692	0.392307692	0.142307692
He	core	0.125	0.375	0.125
O	core	0.107692308	0.357692308	0.107692308
O	core	-0.017307692	0.517307692	0.142307692
He	core	0	0.5	0.125
O	core	0.017307692	0.482692308	0.107692308
O	core	-0.017307692	0.357692308	0.267307692
He	core	0	0.375	0.25
O	core	0.017307692	0.392307692	0.232692308
O	core	0.392307692	0.232692308	0.267307692
He	core	0.375	0.25	0.25
O	core	0.357692308	0.267307692	0.232692308
O	core	0.392307692	0.392307692	0.142307692
He	core	0.375	0.375	0.125
O	core	0.357692308	0.357692308	0.107692308
O	core	0.232692308	0.517307692	0.142307692
He	core	0.25	0.5	0.125
O	core	0.267307692	0.482692308	0.107692308
O	core	0.232692308	0.357692308	0.267307692
He	core	0.25	0.375	0.25
O	core	0.267307692	0.392307692	0.232692308
O	core	0.642307692	0.232692308	0.267307692
He	core	0.625	0.25	0.25
O	core	0.607692308	0.267307692	0.232692308
O	core	0.642307692	0.392307692	0.142307692
He	core	0.625	0.375	0.125
O	core	0.607692308	0.357692308	0.107692308
O	core	0.482692308	0.517307692	0.142307692
He	core	0.5	0.5	0.125
O	core	0.517307692	0.482692308	0.107692308
O	core	0.482692308	0.357692308	0.267307692
He	core	0.5	0.375	0.25
O	core	0.517307692	0.392307692	0.232692308
O	core	0.892307692	0.232692308	0.267307692
He	core	0.875	0.25	0.25
O	core	0.857692308	0.267307692	0.232692308
O	core	0.892307692	0.392307692	0.142307692
He	core	0.875	0.375	0.125
O	core	0.857692308	0.357692308	0.107692308
O	core	0.732692308	0.517307692	0.142307692
He	core	0.75	0.5	0.125
O	core	0.767307692	0.482692308	0.107692308
O	core	0.732692308	0.357692308	0.267307692
He	core	0.75	0.375	0.25
O	core	0.767307692	0.392307692	0.232692308
O	core	0.142307692	0.482692308	0.267307692
He	core	0.125	0.5	0.25
O	core	0.107692308	0.517307692	0.232692308
O	core	0.142307692	0.642307692	0.142307692
He	core	0.125	0.625	0.125
O	core	0.107692308	0.607692308	0.107692308
O	core	-0.017307692	0.767307692	0.142307692
He	core	0	0.75	0.125
O	core	0.017307692	0.732692308	0.107692308
O	core	-0.017307692	0.607692308	0.267307692
He	core	0	0.625	0.25
O	core	0.017307692	0.642307692	0.232692308
O	core	0.392307692	0.482692308	0.267307692
He	core	0.375	0.5	0.25
O	core	0.357692308	0.517307692	0.232692308
O	core	0.392307692	0.642307692	0.142307692
He	core	0.375	0.625	0.125
O	core	0.357692308	0.607692308	0.107692308
O	core	0.232692308	0.767307692	0.142307692
He	core	0.25	0.75	0.125
O	core	0.267307692	0.732692308	0.107692308
O	core	0.232692308	0.607692308	0.267307692
He	core	0.25	0.625	0.25
O	core	0.267307692	0.642307692	0.232692308
O	core	0.642307692	0.482692308	0.267307692
He	core	0.625	0.5	0.25
O	core	0.607692308	0.517307692	0.232692308
O	core	0.642307692	0.642307692	0.142307692
He	core	0.625	0.625	0.125
O	core	0.607692308	0.607692308	0.107692308
O	core	0.482692308	0.767307692	0.142307692
He	core	0.5	0.75	0.125
O	core	0.517307692	0.732692308	0.107692308
O	core	0.482692308	0.607692308	0.267307692
He	core	0.5	0.625	0.25
O	core	0.517307692	0.642307692	0.232692308
O	core	0.892307692	0.482692308	0.267307692
He	core	0.875	0.5	0.25
O	core	0.857692308	0.517307692	0.232692308
O	core	0.892307692	0.642307692	0.142307692
He	core	0.875	0.625	0.125
O	core	0.857692308	0.607692308	0.107692308
O	core	0.732692308	0.767307692	0.142307692
He	core	0.75	0.75	0.125
O	core	0.767307692	0.732692308	0.107692308
O	core	0.732692308	0.607692308	0.267307692
He	core	0.75	0.625	0.25
O	core	0.767307692	0.642307692	0.232692308
O	core	0.142307692	0.732692308	0.267307692
He	core	0.125	0.75	0.25
O	core	0.107692308	0.767307692	0.232692308
O	core	0.142307692	0.892307692	0.142307692
He	core	0.125	0.875	0.125
O	core	0.107692308	0.857692308	0.107692308
O	core	-0.017307692	1.017307692	0.142307692
He	core	0	1	0.125
O	core	0.017307692	0.982692308	0.107692308
O	core	-0.017307692	0.857692308	0.267307692
He	core	0	0.875	0.25
O	core	0.017307692	0.892307692	0.232692308
O	core	0.392307692	0.732692308	0.267307692
He	core	0.375	0.75	0.25
O	core	0.357692308	0.767307692	0.232692308
O	core	0.392307692	0.892307692	0.142307692
He	core	0.375	0.875	0.125
O	core	0.357692308	0.857692308	0.107692308
O	core	0.232692308	1.017307692	0.142307692
He	core	0.25	1	0.125
O	core	0.267307692	0.982692308	0.107692308
O	core	0.232692308	0.857692308	0.267307692
He	core	0.25	0.875	0.25
O	core	0.267307692	0.892307692	0.232692308
O	core	0.642307692	0.732692308	0.267307692
He	core	0.625	0.75	0.25
O	core	0.607692308	0.767307692	0.232692308
O	core	0.642307692	0.892307692	0.142307692
He	core	0.625	0.875	0.125
O	core	0.607692308	0.857692308	0.107692308
O	core	0.482692308	1.017307692	0.142307692
He	core	0.5	1	0.125
O	core	0.517307692	0.982692308	0.107692308
O	core	0.482692308	0.857692308	0.267307692
He	core	0.5	0.875	0.25
O	core	0.517307692	0.892307692	0.232692308
O	core	0.892307692	0.732692308	0.267307692
He	core	0.875	0.75	0.25
O	core	0.857692308	0.767307692	0.232692308
O	core	0.892307692	0.892307692	0.142307692
He	core	0.875	0.875	0.125
O	core	0.857692308	0.857692308	0.107692308
O	core	0.732692308	1.017307692	0.142307692
He	core	0.75	1	0.125
O	core	0.767307692	0.982692308	0.107692308
O	core	0.732692308	0.857692308	0.267307692
He	core	0.75	0.875	0.25
O	core	0.767307692	0.892307692	0.232692308
O	core	0.142307692	-0.017307692	0.517307692
He	core	0.125	0	0.5
O	core	0.107692308	0.017307692	0.482692308
O	core	0.142307692	0.142307692	0.392307692
He	core	0.125	0.125	0.375
O	core	0.107692308	0.107692308	0.357692308
O	core	-0.017307692	0.267307692	0.392307692
He	core	0	0.25	0.375
O	core	0.017307692	0.232692308	0.357692308
O	core	-0.017307692	0.107692308	0.517307692
He	core	0	0.125	0.5
O	core	0.017307692	0.142307692	0.482692308
O	core	0.392307692	-0.017307692	0.517307692
He	core	0.375	0	0.5
O	core	0.357692308	0.017307692	0.482692308
O	core	0.392307692	0.142307692	0.392307692
He	core	0.375	0.125	0.375
O	core	0.357692308	0.107692308	0.357692308
O	core	0.232692308	0.267307692	0.392307692
He	core	0.25	0.25	0.375
O	core	0.267307692	0.232692308	0.357692308
O	core	0.232692308	0.107692308	0.517307692
He	core	0.25	0.125	0.5
O	core	0.267307692	0.142307692	0.482692308
O	core	0.642307692	-0.017307692	0.517307692
He	core	0.625	0	0.5
O	core	0.607692308	0.017307692	0.482692308
O	core	0.642307692	0.142307692	0.392307692
He	core	0.625	0.125	0.375
O	core	0.607692308	0.107692308	0.357692308
O	core	0.482692308	0.267307692	0.392307692
He	core	0.5	0.25	0.375
O	core	0.517307692	0.232692308	0.357692308
O	core	0.482692308	0.107692308	0.517307692
He	core	0.5	0.125	0.5
O	core	0.517307692	0.142307692	0.482692308
O	core	0.892307692	-0.017307692	0.517307692
He	core	0.875	0	0.5
O	core	0.857692308	0.017307692	0.482692308
O	core	0.892307692	0.142307692	0.392307692
He	core	0.875	0.125	0.375
O	core	0.857692308	0.107692308	0.357692308
O	core	0.732692308	0.267307692	0.392307692
He	core	0.75	0.25	0.375
O	core	0.767307692	0.232692308	0.357692308
O	core	0.732692308	0.107692308	0.517307692
He	core	0.75	0.125	0.5
O	core	0.767307692	0.142307692	0.482692308
O	core	0.142307692	0.232692308	0.517307692
He	core	0.125	0.25	0.5
O	core	0.107692308	0.267307692	0.482692308
O	core	0.142307692	0.392307692	0.392307692
He	core	0.125	0.375	0.375
O	core	0.107692308	0.357692308	0.357692308
O	core	-0.017307692	0.517307692	0.392307692
He	core	0	0.5	0.375
O	core	0.017307692	0.482692308	0.357692308
O	core	-0.017307692	0.357692308	0.517307692
He	core	0	0.375	0.5
O	core	0.017307692	0.392307692	0.482692308
O	core	0.392307692	0.232692308	0.517307692
He	core	0.375	0.25	0.5
O	core	0.357692308	0.267307692	0.482692308
O	core	0.392307692	0.392307692	0.392307692
He	core	0.375	0.375	0.375
O	core	0.357692308	0.357692308	0.357692308
O	core	0.232692308	0.517307692	0.392307692
He	core	0.25	0.5	0.375
O	core	0.267307692	0.482692308	0.357692308
O	core	0.232692308	0.357692308	0.517307692
He	core	0.25	0.375	0.5
O	core	0.267307692	0.392307692	0.482692308
O	core	0.642307692	0.232692308	0.517307692
He	core	0.625	0.25	0.5
O	core	0.607692308	0.267307692	0.482692308
O	core	0.642307692	0.392307692	0.392307692
He	core	0.625	0.375	0.375
O	core	0.607692308	0.357692308	0.357692308
O	core	0.482692308	0.517307692	0.392307692
He	core	0.5	0.5	0.375
O	core	0.517307692	0.482692308	0.357692308
O	core	0.482692308	0.357692308	0.517307692
He	core	0.5	0.375	0.5
O	core	0.517307692	0.392307692	0.482692308
O	core	0.892307692	0.232692308	0.517307692
He	core	0.875	0.25	0.5
O	core	0.857692308	0.267307692	0.482692308
O	core	0.892307692	0.392307692	0.392307692
He	core	0.875	0.375	0.375
O	core	0.857692308	0.357692308	0.357692308
O	core	0.732692308	0.517307692	0.392307692
He	core	0.75	0.5	0.375
O	core	0.767307692	0.482692308	0.357692308
O	core	0.732692308	0.357692308	0.517307692
He	core	0.75	0.375	0.5
O	core	0.767307692	0.392307692	0.482692308
O	core	0.142307692	0.482692308	0.517307692
He	core	0.125	0.5	0.5
O	core	0.107692308	0.517307692	0.482692308
O	core	0.142307692	0.642307692	0.392307692
He	core	0.125	0.625	0.375
O	core	0.107692308	0.607692308	0.357692308
O	core	-0.017307692	0.767307692	0.392307692
He	core	0	0.75	0.375
O	core	0.017307692	0.732692308	0.357692308
O	core	-0.017307692	0.607692308	0.517307692
He	core	0	0.625	0.5
O	core	0.017307692	0.642307692	0.482692308
O	core	0.392307692	0.482692308	0.517307692
He	core	0.375	0.5	0.5
O	core	0.357692308	0.517307692	0.482692308
O	core	0.392307692	0.642307692	0.392307692
He	core	0.375	0.625	0.375
O	core	0.357692308	0.607692308	0.357692308
O	core	0.232692308	0.767307692	0.392307692
He	core	0.25	0.75	0.375
O	core	0.267307692	0.732692308	0.357692308
O	core	0.232692308	0.607692308	0.517307692
He	core	0.25	0.625	0.5
O	core	0.267307692	0.642307692	0.482692308
O	core	0.642307692	0.482692308	0.517307692
He	core	0.625	0.5	0.5
O	core	0.607692308	0.517307692	0.482692308
O	core	0.642307692	0.642307692	0.392307692
He	core	0.625	0.625	0.375
O	core	0.607692308	0.607692308	0.357692308
O	core	0.482692308	0.767307692	0.392307692
He	core	0.5	0.75	0.375
O	core	0.517307692	0.732692308	0.357692308
O	core	0.482692308	0.607692308	0.517307692
He	core	0.5	0.625	0.5
O	core	0.517307692	0.642307692	0.482692308
O	core	0.892307692	0.482692308	0.517307692
He	core	0.875	0.5	0.5
O	core	0.857692308	0.517307692	0.482692308
O	core	0.892307692	0.642307692	0.392307692
He	core	0.875	0.625	0.375
O	core	0.857692308	0.607692308	0.357692308
O	core	0.732692308	0.767307692	0.392307692
He	core	0.75	0.75	0.375
O	core	0.767307692	0.732692308	0.357692308
O	core	0.732692308	0.607692308	0.517307692
He	core	0.75	0.625	0.5
O	core	0.767307692	0.642307692	0.482692308
O	core	0.142307692	0.732692308	0.517307692
He	core	0.125	0.75	0.5
O	core	0.107692308	0.767307692	0.482692308
O	core	0.142307692	0.892307692	0.392307692
He	core	0.125	0.875	0.375
O	core	0.107692308	0.857692308	0.357692308
O	core	-0.017307692	1.017307692	0.392307692
He	core	0	1	0.375
O	core	0.017307692	0.982692308	0.357692308
O	core	-0.017307692	0.857692308	0.517307692
He	core	0	0.875	0.5
O	core	0.017307692	0.892307692	0.482692308
O	core	0.392307692	0.732692308	0.517307692
He	core	0.375	0.75	0.5
O	core	0.357692308	0.767307692	0.482692308
O	core	0.392307692	0.892307692	0.392307692
He	core	0.375	0.875	0.375
O	core	0.357692308	0.857692308	0.357692308
O	core	0.232692308	1.017307692	0.392307692
He	core	0.25	1	0.375
O	core	0.267307692	0.982692308	0.357692308
O	core	0.232692308	0.857692308	0.517307692
He	core	0.25	0.875	0.5
O	core	0.267307692	0.892307692	0.482692308
O	core	0.642307692	0.732692308	0.517307692
He	core	0.625	0.75	0.5
O	core	0.607692308	0.767307692	0.482692308
O	core	0.642307692	0.892307692	0.392307692
He	core	0.625	0.875	0.375
O	core	0.607692308	0.857692308	0.357692308
O	core	0.482692308	1.017307692	0.392307692
He	core	0.5	1	0.375
O	core	0.517307692	0.982692308	0.357692308
O	core	0.482692308	0.857692308	0.517307692
He	core	0.5	0.875	0.5
O	core	0.517307692	0.892307692	0.482692308
O	core	0.892307692	0.732692308	0.517307692
He	core	0.875	0.75	0.5
O	core	0.857692308	0.767307692	0.482692308
O	core	0.892307692	0.892307692	0.392307692
He	core	0.875	0.875	0.375
O	core	0.857692308	0.857692308	0.357692308
O	core	0.732692308	1.017307692	0.392307692
He	core	0.75	1	0.375
O	core	0.767307692	0.982692308	0.357692308
O	core	0.732692308	0.857692308	0.517307692
He	core	0.75	0.875	0.5
O	core	0.767307692	0.892307692	0.482692308
O	core	0.142307692	-0.017307692	0.767307692
He	core	0.125	0	0.75
O	core	0.107692308	0.017307692	0.732692308
O	core	0.142307692	0.142307692	0.642307692
He	core	0.125	0.125	0.625
O	core	0.107692308	0.107692308	0.607692308
O	core	-0.017307692	0.267307692	0.642307692
He	core	0	0.25	0.625
O	core	0.017307692	0.232692308	0.607692308
O	core	-0.017307692	0.107692308	0.767307692
He	core	0	0.125	0.75
O	core	0.017307692	0.142307692	0.732692308
O	core	0.392307692	-0.017307692	0.767307692
He	core	0.375	0	0.75
O	core	0.357692308	0.017307692	0.732692308
O	core	0.392307692	0.142307692	0.642307692
He	core	0.375	0.125	0.625
O	core	0.357692308	0.107692308	0.607692308
O	core	0.232692308	0.267307692	0.642307692
He	core	0.25	0.25	0.625
O	core	0.267307692	0.232692308	0.607692308
O	core	0.232692308	0.107692308	0.767307692
He	core	0.25	0.125	0.75
O	core	0.267307692	0.142307692	0.732692308
O	core	0.642307692	-0.017307692	0.767307692
He	core	0.625	0	0.75
O	core	0.607692308	0.017307692	0.732692308
O	core	0.642307692	0.142307692	0.642307692
He	core	0.625	0.125	0.625
O	core	0.607692308	0.107692308	0.607692308
O	core	0.482692308	0.267307692	0.642307692
He	core	0.5	0.25	0.625
O	core	0.517307692	0.232692308	0.607692308
O	core	0.482692308	0.107692308	0.767307692
He	core	0.5	0.125	0.75
O	core	0.517307692	0.142307692	0.732692308
O	core	0.892307692	-0.017307692	0.767307692
He	core	0.875	0	0.75
O	core	0.857692308	0.017307692	0.732692308
O	core	0.892307692	0.142307692	0.642307692
He	core	0.875	0.125	0.625
O	core	0.857692308	0.107692308	0.607692308
O	core	0.732692308	0.267307692	0.642307692
He	core	0.75	0.25	0.625
O	core	0.767307692	0.232692308	0.607692308
O	core	0.732692308	0.107692308	0.767307692
He	core	0.75	0.125	0.75
O	core	0.767307692	0.142307692	0.732692308
O	core	0.142307692	0.232692308	0.767307692
He	core	0.125	0.25	0.75
O	core	0.107692308	0.267307692	0.732692308
O	core	0.142307692	0.392307692	0.642307692
He	core	0.125	0.375	0.625
O	core	0.107692308	0.357692308	0.607692308
O	core	-0.017307692	0.517307692	0.642307692
He	core	0	0.5	0.625
O	core	0.017307692	0.482692308	0.607692308
O	core	-0.017307692	0.357692308	0.767307692
He	core	0	0.375	0.75
O	core	0.017307692	0.392307692	0.732692308
O	core	0.392307692	0.232692308	0.767307692
He	core	0.375	0.25	0.75
O	core	0.357692308	0.267307692	0.732692308
O	core	0.392307692	0.392307692	0.642307692
He	core	0.375	0.375	0.625
O	core	0.357692308	0.357692308	0.607692308
O	core	0.232692308	0.517307692	0.642307692
He	core	0.25	0.5	0.625
O	core	0.267307692	0.482692308	0.607692308
O	core	0.232692308	0.357692308	0.767307692
He	core	0.25	0.375	0.75
O	core	0.267307692	0.392307692	0.732692308
O	core	0.642307692	0.232692308	0.767307692
He	core	0.625	0.25	0.75
O	core	0.607692308	0.267307692	0.732692308
O	core	0.642307692	0.392307692	0.642307692
He	core	0.625	0.375	0.625
O	core	0.607692308	0.357692308	0.607692308
O	core	0.482692308	0.517307692	0.642307692
He	core	0.5	0.5	0.625
O	core	0.517307692	0.482692308	0.607692308
O	core	0.482692308	0.357692308	0.767307692
He	core	0.5	0.375	0.75
O	core	0.517307692	0.392307692	0.732692308
O	core	0.892307692	0.232692308	0.767307692
He	core	0.875	0.25	0.75
O	core	0.857692308	0.267307692	0.732692308
O	core	0.892307692	0.392307692	0.642307692
He	core	0.875	0.375	0.625
O	core	0.857692308	0.357692308	0.607692308
O	core	0.732692308	0.517307692	0.642307692
He	core	0.75	0.5	0.625
O	core	0.767307692	0.482692308	0.607692308
O	core	0.732692308	0.357692308	0.767307692
He	core	0.75	0.375	0.75
O	core	0.767307692	0.392307692	0.732692308
O	core	0.142307692	0.482692308	0.767307692
He	core	0.125	0.5	0.75
O	core	0.107692308	0.517307692	0.732692308
O	core	0.142307692	0.642307692	0.642307692
He	core	0.125	0.625	0.625
O	core	0.107692308	0.607692308	0.607692308
O	core	-0.017307692	0.767307692	0.642307692
He	core	0	0.75	0.625
O	core	0.017307692	0.732692308	0.607692308
O	core	-0.017307692	0.607692308	0.767307692
He	core	0	0.625	0.75
O	core	0.017307692	0.642307692	0.732692308
O	core	0.392307692	0.482692308	0.767307692
He	core	0.375	0.5	0.75
O	core	0.357692308	0.517307692	0.732692308
O	core	0.392307692	0.642307692	0.642307692
He	core	0.375	0.625	0.625
O	core	0.357692308	0.607692308	0.607692308
O	core	0.232692308	0.767307692	0.642307692
He	core	0.25	0.75	0.625
O	core	0.267307692	0.732692308	0.607692308
O	core	0.232692308	0.607692308	0.767307692
He	core	0.25	0.625	0.75
O	core	0.267307692	0.642307692	0.732692308
O	core	0.642307692	0.482692308	0.767307692
He	core	0.625	0.5	0.75
O	core	0.607692308	0.517307692	0.732692308
O	core	0.642307692	0.642307692	0.642307692
He	core	0.625	0.625	0.625
O	core	0.607692308	0.607692308	0.607692308
O	core	0.482692308	0.767307692	0.642307692
He	core	0.5	0.75	0.625
O	core	0.517307692	0.732692308	0.607692308
O	core	0.482692308	0.607692308	0.767307692
He	core	0.5	0.625	0.75
O	core	0.517307692	0.642307692	0.732692308
O	core	0.892307692	0.482692308	0.767307692
He	core	0.875	0.5	0.75
O	core	0.857692308	0.517307692	0.732692308
O	core	0.892307692	0.642307692	0.642307692
He	core	0.875	0.625	0.625
O	core	0.857692308	0.607692308	0.607692308
O	core	0.732692308	0.767307692	0.642307692
He	core	0.75	0.75	0.625
O	core	0.767307692	0.732692308	0.607692308
O	core	0.732692308	0.607692308	0.767307692
He	core	0.75	0.625	0.75
O	core	0.767307692	0.642307692	0.732692308
O	core	0.142307692	0.732692308	0.767307692
He	core	0.125	0.75	0.75
O	core	0.107692308	0.767307692	0.732692308
O	core	0.142307692	0.892307692	0.642307692
He	core	0.125	0.875	0.625
O	core	0.107692308	0.857692308	0.607692308
O	core	-0.017307692	1.017307692	0.642307692
He	core	0	1	0.625
O	core	0.017307692	0.982692308	0.607692308
O	core	-0.017307692	0.857692308	0.767307692
He	core	0	0.875	0.75
O	core	0.017307692	0.892307692	0.732692308
O	core	0.392307692	0.732692308	0.767307692
He	core	0.375	0.75	0.75
O	core	0.357692308	0.767307692	0.732692308
O	core	0.392307692	0.892307692	0.642307692
He	core	0.375	0.875	0.625
O	core	0.357692308	0.857692308	0.607692308
O	core	0.232692308	1.017307692	0.642307692
He	core	0.25	1	0.625
O	core	0.267307692	0.982692308	0.607692308
O	core	0.232692308	0.857692308	0.767307692
He	core	0.25	0.875	0.75
O	core	0.267307692	0.892307692	0.732692308
O	core	0.642307692	0.732692308	0.767307692
He	core	0.625	0.75	0.75
O	core	0.607692308	0.767307692	0.732692308
O	core	0.642307692	0.892307692	0.642307692
He	core	0.625	0.875	0.625
O	core	0.607692308	0.857692308	0.607692308
O	core	0.482692308	1.017307692	0.642307692
He	core	0.5	1	0.625
O	core	0.517307692	0.982692308	0.607692308
O	core	0.482692308	0.857692308	0.767307692
He	core	0.5	0.875	0.75
O	core	0.517307692	0.892307692	0.732692308
O	core	0.892307692	0.732692308	0.767307692
He	core	0.875	0.75	0.75
O	core	0.857692308	0.767307692	0.732692308
O	core	0.892307692	0.892307692	0.642307692
He	core	0.875	0.875	0.625
O	core	0.857692308	0.857692308	0.607692308
O	core	0.732692308	1.017307692	0.642307692
He	core	0.75	1	0.625
O	core	0.767307692	0.982692308	0.607692308
O	core	0.732692308	0.857692308	0.767307692
He	core	0.75	0.875	0.75
O	core	0.767307692	0.892307692	0.732692308
O	core	0.142307692	-0.017307692	1.017307692
He	core	0.125	0	1
O	core	0.107692308	0.017307692	0.982692308
O	core	0.142307692	0.142307692	0.892307692
He	core	0.125	0.125	0.875
O	core	0.107692308	0.107692308	0.857692308
O	core	-0.017307692	0.267307692	0.892307692
He	core	0	0.25	0.875
O	core	0.017307692	0.232692308	0.857692308
O	core	-0.017307692	0.107692308	1.017307692
He	core	0	0.125	1
O	core	0.017307692	0.142307692	0.982692308
O	core	0.392307692	-0.017307692	1.017307692
He	core	0.375	0	1
O	core	0.357692308	0.017307692	0.982692308
O	core	0.392307692	0.142307692	0.892307692
He	core	0.375	0.125	0.875
O	core	0.357692308	0.107692308	0.857692308
O	core	0.232692308	0.267307692	0.892307692
He	core	0.25	0.25	0.875
O	core	0.267307692	0.232692308	0.857692308
O	core	0.232692308	0.107692308	1.017307692
He	core	0.25	0.125	1
O	core	0.267307692	0.142307692	0.982692308
O	core	0.642307692	-0.017307692	1.017307692
He	core	0.625	0	1
O	core	0.607692308	0.017307692	0.982692308
O	core	0.642307692	0.142307692	0.892307692
He	core	0.625	0.125	0.875
O	core	0.607692308	0.107692308	0.857692308
O	core	0.482692308	0.267307692	0.892307692
He	core	0.5	0.25	0.875
O	core	0.517307692	0.232692308	0.857692308
O	core	0.482692308	0.107692308	1.017307692
He	core	0.5	0.125	1
O	core	0.517307692	0.142307692	0.982692308
O	core	0.892307692	-0.017307692	1.017307692
He	core	0.875	0	1
O	core	0.857692308	0.017307692	0.982692308
O	core	0.892307692	0.142307692	0.892307692
He	core	0.875	0.125	0.875
O	core	0.857692308	0.107692308	0.857692308
O	core	0.732692308	0.267307692	0.892307692
He	core	0.75	0.25	0.875
O	core	0.767307692	0.232692308	0.857692308
O	core	0.732692308	0.107692308	1.017307692
He	core	0.75	0.125	1
O	core	0.767307692	0.142307692	0.982692308
O	core	0.142307692	0.232692308	1.017307692
He	core	0.125	0.25	1
O	core	0.107692308	0.267307692	0.982692308
O	core	0.142307692	0.392307692	0.892307692
He	core	0.125	0.375	0.875
O	core	0.107692308	0.357692308	0.857692308
O	core	-0.017307692	0.517307692	0.892307692
He	core	0	0.5	0.875
O	core	0.017307692	0.482692308	0.857692308
O	core	-0.017307692	0.357692308	1.017307692
He	core	0	0.375	1
O	core	0.017307692	0.392307692	0.982692308
O	core	0.392307692	0.232692308	1.017307692
He	core	0.375	0.25	1
O	core	0.357692308	0.267307692	0.982692308
O	core	0.392307692	0.392307692	0.892307692
He	core	0.375	0.375	0.875
O	core	0.357692308	0.357692308	0.857692308
O	core	0.232692308	0.517307692	0.892307692
He	core	0.25	0.5	0.875
O	core	0.267307692	0.482692308	0.857692308
O	core	0.232692308	0.357692308	1.017307692
He	core	0.25	0.375	1
O	core	0.267307692	0.392307692	0.982692308
O	core	0.642307692	0.232692308	1.017307692
He	core	0.625	0.25	1
O	core	0.607692308	0.267307692	0.982692308
O	core	0.642307692	0.392307692	0.892307692
He	core	0.625	0.375	0.875
O	core	0.607692308	0.357692308	0.857692308
O	core	0.482692308	0.517307692	0.892307692
He	core	0.5	0.5	0.875